
(set-logic HORN)
(declare-fun Z_2280 () Int)
(declare-fun S_528 (Int) Int)
(declare-fun diseqInt (Int Int) Bool)
(declare-fun unS_757 (Int Int) Bool)
(declare-fun isZ_495 (Int) Bool)
(declare-fun isS_495 (Int) Bool)
(assert (forall ((x_58879 Int))
	(unS_757 x_58879 (S_528 x_58879))))
(assert (isZ_495 Z_2280))
(assert (forall ((x_58881 Int))
	(isS_495 (S_528 x_58881))))
(assert (forall ((x_58882 Int))
	(diseqInt Z_2280 (S_528 x_58882))))
(assert (forall ((x_58883 Int))
	(diseqInt (S_528 x_58883) Z_2280)))
(assert (forall ((x_58884 Int) (x_58885 Int))
	(=> (diseqInt x_58884 x_58885) (diseqInt (S_528 x_58884) (S_528 x_58885)))))
(declare-fun add_404 (Int Int Int) Bool)
(declare-fun minus_399 (Int Int Int) Bool)
(declare-fun le_378 (Int Int) Bool)
(declare-fun ge_378 (Int Int) Bool)
(declare-fun lt_398 (Int Int) Bool)
(declare-fun gt_381 (Int Int) Bool)
(declare-fun mult_379 (Int Int Int) Bool)
(declare-fun div_378 (Int Int Int) Bool)
(declare-fun mod_380 (Int Int Int) Bool)
(assert (forall ((y_2543 Int))
	(add_404 y_2543 Z_2280 y_2543)))
(assert (forall ((x_58859 Int) (y_2543 Int) (r_466 Int))
	(=> (add_404 r_466 x_58859 y_2543) (add_404 (S_528 r_466) (S_528 x_58859) y_2543))))
(assert (forall ((y_2543 Int))
	(minus_399 Z_2280 Z_2280 y_2543)))
(assert (forall ((x_58859 Int) (y_2543 Int) (r_466 Int))
	(=> (minus_399 r_466 x_58859 y_2543) (minus_399 (S_528 r_466) (S_528 x_58859) y_2543))))
(assert (forall ((y_2543 Int))
	(le_378 Z_2280 y_2543)))
(assert (forall ((x_58859 Int) (y_2543 Int))
	(=> (le_378 x_58859 y_2543) (le_378 (S_528 x_58859) (S_528 y_2543)))))
(assert (forall ((y_2543 Int))
	(ge_378 y_2543 Z_2280)))
(assert (forall ((x_58859 Int) (y_2543 Int))
	(=> (ge_378 x_58859 y_2543) (ge_378 (S_528 x_58859) (S_528 y_2543)))))
(assert (forall ((y_2543 Int))
	(lt_398 Z_2280 (S_528 y_2543))))
(assert (forall ((x_58859 Int) (y_2543 Int))
	(=> (lt_398 x_58859 y_2543) (lt_398 (S_528 x_58859) (S_528 y_2543)))))
(assert (forall ((y_2543 Int))
	(gt_381 (S_528 y_2543) Z_2280)))
(assert (forall ((x_58859 Int) (y_2543 Int))
	(=> (gt_381 x_58859 y_2543) (gt_381 (S_528 x_58859) (S_528 y_2543)))))
(assert (forall ((y_2543 Int))
	(mult_379 Z_2280 Z_2280 y_2543)))
(assert (forall ((x_58859 Int) (y_2543 Int) (r_466 Int) (z_2281 Int))
	(=> (and (mult_379 r_466 x_58859 y_2543) (add_404 z_2281 r_466 y_2543)) (mult_379 z_2281 (S_528 x_58859) y_2543))))
(assert (forall ((x_58859 Int) (y_2543 Int))
	(=> (lt_398 x_58859 y_2543) (div_378 Z_2280 x_58859 y_2543))))
(assert (forall ((x_58859 Int) (y_2543 Int) (r_466 Int) (z_2281 Int))
	(=> (and (ge_378 x_58859 y_2543) (minus_399 z_2281 x_58859 y_2543) (div_378 r_466 z_2281 y_2543)) (div_378 (S_528 r_466) x_58859 y_2543))))
(assert (forall ((x_58859 Int) (y_2543 Int))
	(=> (lt_398 x_58859 y_2543) (mod_380 x_58859 x_58859 y_2543))))
(assert (forall ((x_58859 Int) (y_2543 Int) (r_466 Int) (z_2281 Int))
	(=> (and (ge_378 x_58859 y_2543) (minus_399 z_2281 x_58859 y_2543) (mod_380 r_466 z_2281 y_2543)) (mod_380 r_466 x_58859 y_2543))))
(declare-datatypes ((Bool_378 0)) (((false_378) (true_378))))
(declare-fun diseqBool_171 (Bool_378 Bool_378) Bool)
(declare-fun isfalse_171 (Bool_378) Bool)
(declare-fun istrue_171 (Bool_378) Bool)
(assert (isfalse_171 false_378))
(assert (istrue_171 true_378))
(assert (diseqBool_171 false_378 true_378))
(assert (diseqBool_171 true_378 false_378))
(declare-fun and_379 (Bool_378 Bool_378 Bool_378) Bool)
(declare-fun or_389 (Bool_378 Bool_378 Bool_378) Bool)
(declare-fun hence_378 (Bool_378 Bool_378 Bool_378) Bool)
(declare-fun not_383 (Bool_378 Bool_378) Bool)
(assert (and_379 false_378 false_378 false_378))
(assert (and_379 false_378 true_378 false_378))
(assert (and_379 false_378 false_378 true_378))
(assert (and_379 true_378 true_378 true_378))
(assert (or_389 false_378 false_378 false_378))
(assert (or_389 true_378 true_378 false_378))
(assert (or_389 true_378 false_378 true_378))
(assert (or_389 true_378 true_378 true_378))
(assert (hence_378 true_378 false_378 false_378))
(assert (hence_378 false_378 true_378 false_378))
(assert (hence_378 true_378 false_378 true_378))
(assert (hence_378 true_378 true_378 true_378))
(assert (not_383 true_378 false_378))
(assert (not_383 false_378 true_378))
(declare-datatypes ((pair_112 0)) (((pair_113 (projpair_224 Int) (projpair_225 Int)))))
(declare-fun diseqpair_56 (pair_112 pair_112) Bool)
(declare-fun projpair_226 (Int pair_112) Bool)
(declare-fun projpair_227 (Int pair_112) Bool)
(declare-fun ispair_56 (pair_112) Bool)
(assert (forall ((x_58888 Int) (x_58889 Int))
	(projpair_226 x_58888 (pair_113 x_58888 x_58889))))
(assert (forall ((x_58888 Int) (x_58889 Int))
	(projpair_227 x_58889 (pair_113 x_58888 x_58889))))
(assert (forall ((x_58891 Int) (x_58892 Int))
	(ispair_56 (pair_113 x_58891 x_58892))))
(assert (forall ((x_58893 Int) (x_58894 Int) (x_58895 Int) (x_58896 Int))
	(=> (diseqInt x_58893 x_58895) (diseqpair_56 (pair_113 x_58893 x_58894) (pair_113 x_58895 x_58896)))))
(assert (forall ((x_58893 Int) (x_58894 Int) (x_58895 Int) (x_58896 Int))
	(=> (diseqInt x_58894 x_58896) (diseqpair_56 (pair_113 x_58893 x_58894) (pair_113 x_58895 x_58896)))))
(declare-datatypes ((list_290 0)) (((nil_321) (cons_288 (head_576 Bool_378) (tail_578 list_290)))))
(declare-fun diseqlist_288 (list_290 list_290) Bool)
(declare-fun head_580 (Bool_378 list_290) Bool)
(declare-fun tail_582 (list_290 list_290) Bool)
(declare-fun isnil_321 (list_290) Bool)
(declare-fun iscons_288 (list_290) Bool)
(assert (forall ((x_58898 Bool_378) (x_58899 list_290))
	(head_580 x_58898 (cons_288 x_58898 x_58899))))
(assert (forall ((x_58898 Bool_378) (x_58899 list_290))
	(tail_582 x_58899 (cons_288 x_58898 x_58899))))
(assert (isnil_321 nil_321))
(assert (forall ((x_58901 Bool_378) (x_58902 list_290))
	(iscons_288 (cons_288 x_58901 x_58902))))
(assert (forall ((x_58903 Bool_378) (x_58904 list_290))
	(diseqlist_288 nil_321 (cons_288 x_58903 x_58904))))
(assert (forall ((x_58905 Bool_378) (x_58906 list_290))
	(diseqlist_288 (cons_288 x_58905 x_58906) nil_321)))
(assert (forall ((x_58907 Bool_378) (x_58908 list_290) (x_58909 Bool_378) (x_58910 list_290))
	(=> (diseqBool_171 x_58907 x_58909) (diseqlist_288 (cons_288 x_58907 x_58908) (cons_288 x_58909 x_58910)))))
(assert (forall ((x_58907 Bool_378) (x_58908 list_290) (x_58909 Bool_378) (x_58910 list_290))
	(=> (diseqlist_288 x_58908 x_58910) (diseqlist_288 (cons_288 x_58907 x_58908) (cons_288 x_58909 x_58910)))))
(declare-datatypes ((list_291 0)) (((nil_322) (cons_289 (head_577 Int) (tail_579 list_291)))))
(declare-fun diseqlist_289 (list_291 list_291) Bool)
(declare-fun head_581 (Int list_291) Bool)
(declare-fun tail_583 (list_291 list_291) Bool)
(declare-fun isnil_322 (list_291) Bool)
(declare-fun iscons_289 (list_291) Bool)
(assert (forall ((x_58912 Int) (x_58913 list_291))
	(head_581 x_58912 (cons_289 x_58912 x_58913))))
(assert (forall ((x_58912 Int) (x_58913 list_291))
	(tail_583 x_58913 (cons_289 x_58912 x_58913))))
(assert (isnil_322 nil_322))
(assert (forall ((x_58915 Int) (x_58916 list_291))
	(iscons_289 (cons_289 x_58915 x_58916))))
(assert (forall ((x_58917 Int) (x_58918 list_291))
	(diseqlist_289 nil_322 (cons_289 x_58917 x_58918))))
(assert (forall ((x_58919 Int) (x_58920 list_291))
	(diseqlist_289 (cons_289 x_58919 x_58920) nil_322)))
(assert (forall ((x_58921 Int) (x_58922 list_291) (x_58923 Int) (x_58924 list_291))
	(=> (diseqInt x_58921 x_58923) (diseqlist_289 (cons_289 x_58921 x_58922) (cons_289 x_58923 x_58924)))))
(assert (forall ((x_58921 Int) (x_58922 list_291) (x_58923 Int) (x_58924 list_291))
	(=> (diseqlist_289 x_58922 x_58924) (diseqlist_289 (cons_289 x_58921 x_58922) (cons_289 x_58923 x_58924)))))
(declare-datatypes ((list_292 0)) (((nil_323) (cons_290 (head_578 pair_112) (tail_580 list_292)))))
(declare-fun diseqlist_290 (list_292 list_292) Bool)
(declare-fun head_582 (pair_112 list_292) Bool)
(declare-fun tail_584 (list_292 list_292) Bool)
(declare-fun isnil_323 (list_292) Bool)
(declare-fun iscons_290 (list_292) Bool)
(assert (forall ((x_58926 pair_112) (x_58927 list_292))
	(head_582 x_58926 (cons_290 x_58926 x_58927))))
(assert (forall ((x_58926 pair_112) (x_58927 list_292))
	(tail_584 x_58927 (cons_290 x_58926 x_58927))))
(assert (isnil_323 nil_323))
(assert (forall ((x_58929 pair_112) (x_58930 list_292))
	(iscons_290 (cons_290 x_58929 x_58930))))
(assert (forall ((x_58931 pair_112) (x_58932 list_292))
	(diseqlist_290 nil_323 (cons_290 x_58931 x_58932))))
(assert (forall ((x_58933 pair_112) (x_58934 list_292))
	(diseqlist_290 (cons_290 x_58933 x_58934) nil_323)))
(assert (forall ((x_58935 pair_112) (x_58936 list_292) (x_58937 pair_112) (x_58938 list_292))
	(=> (diseqpair_56 x_58935 x_58937) (diseqlist_290 (cons_290 x_58935 x_58936) (cons_290 x_58937 x_58938)))))
(assert (forall ((x_58935 pair_112) (x_58936 list_292) (x_58937 pair_112) (x_58938 list_292))
	(=> (diseqlist_290 x_58936 x_58938) (diseqlist_290 (cons_290 x_58935 x_58936) (cons_290 x_58937 x_58938)))))
(declare-datatypes ((list_293 0)) (((nil_324) (cons_291 (head_579 list_292) (tail_581 list_293)))))
(declare-fun diseqlist_291 (list_293 list_293) Bool)
(declare-fun head_583 (list_292 list_293) Bool)
(declare-fun tail_585 (list_293 list_293) Bool)
(declare-fun isnil_324 (list_293) Bool)
(declare-fun iscons_291 (list_293) Bool)
(assert (forall ((x_58940 list_292) (x_58941 list_293))
	(head_583 x_58940 (cons_291 x_58940 x_58941))))
(assert (forall ((x_58940 list_292) (x_58941 list_293))
	(tail_585 x_58941 (cons_291 x_58940 x_58941))))
(assert (isnil_324 nil_324))
(assert (forall ((x_58943 list_292) (x_58944 list_293))
	(iscons_291 (cons_291 x_58943 x_58944))))
(assert (forall ((x_58945 list_292) (x_58946 list_293))
	(diseqlist_291 nil_324 (cons_291 x_58945 x_58946))))
(assert (forall ((x_58947 list_292) (x_58948 list_293))
	(diseqlist_291 (cons_291 x_58947 x_58948) nil_324)))
(assert (forall ((x_58949 list_292) (x_58950 list_293) (x_58951 list_292) (x_58952 list_293))
	(=> (diseqlist_290 x_58949 x_58951) (diseqlist_291 (cons_291 x_58949 x_58950) (cons_291 x_58951 x_58952)))))
(assert (forall ((x_58949 list_292) (x_58950 list_293) (x_58951 list_292) (x_58952 list_293))
	(=> (diseqlist_291 x_58950 x_58952) (diseqlist_291 (cons_291 x_58949 x_58950) (cons_291 x_58951 x_58952)))))
(declare-fun primEnumFromTo_2 (list_291 Int Int) Bool)
(assert (forall ((x_58687 Int) (y_2525 Int))
	(=> (gt_381 x_58687 y_2525) (primEnumFromTo_2 nil_322 x_58687 y_2525))))
(assert (forall ((x_58860 Int) (x_58715 list_291) (x_58687 Int) (y_2525 Int))
	(=> (and (le_378 x_58687 y_2525) (primEnumFromTo_2 x_58715 x_58860 y_2525) (add_404 x_58860 (S_528 Z_2280) x_58687)) (primEnumFromTo_2 (cons_289 x_58687 x_58715) x_58687 y_2525))))
(declare-fun petersen_4 (list_292 Int list_291) Bool)
(assert (forall ((x_58861 Int) (x_58717 list_292) (z_2269 Int) (x_58689 list_291) (x_58688 Int))
	(=> (and (petersen_4 x_58717 x_58688 x_58689) (add_404 x_58861 x_58688 z_2269)) (petersen_4 (cons_290 (pair_113 z_2269 x_58861) x_58717) x_58688 (cons_289 z_2269 x_58689)))))
(assert (forall ((x_58688 Int))
	(petersen_4 nil_323 x_58688 nil_322)))
(declare-fun petersen_5 (list_292 list_291) Bool)
(assert (forall ((x_58862 Int) (x_58720 list_292) (y_2527 Int) (z_2270 list_291))
	(=> (and (petersen_5 x_58720 z_2270) (add_404 x_58862 (S_528 Z_2280) y_2527)) (petersen_5 (cons_290 (pair_113 y_2527 x_58862) x_58720) (cons_289 y_2527 z_2270)))))
(assert (petersen_5 nil_323 nil_322))
(declare-fun petersen_6 (list_293 Int list_292) Bool)
(assert (forall ((x_58863 Int) (x_58864 Int) (x_58723 list_293) (u_5 Int) (v_5 Int) (x_58692 list_292) (x_58691 Int))
	(=> (and (petersen_6 x_58723 x_58691 x_58692) (add_404 x_58863 x_58691 u_5) (add_404 x_58864 x_58691 v_5)) (petersen_6 (cons_291 (cons_290 (pair_113 u_5 v_5) (cons_290 (pair_113 x_58863 x_58864) nil_323)) x_58723) x_58691 (cons_290 (pair_113 u_5 v_5) x_58692)))))
(assert (forall ((x_58691 Int))
	(petersen_6 nil_324 x_58691 nil_323)))
(declare-fun path_0 (list_290 Int Int list_292) Bool)
(assert (forall ((x_58726 list_290) (u_6 Int) (x_58695 list_292))
	(=> (path_0 x_58726 u_6 u_6 x_58695) (path_0 (cons_288 true_378 x_58726) u_6 u_6 (cons_290 (pair_113 u_6 u_6) x_58695)))))
(assert (forall ((x_58728 list_290) (u_6 Int) (x_58695 list_292))
	(=> (and (diseqInt u_6 u_6) (path_0 x_58728 u_6 u_6 x_58695)) (path_0 (cons_288 true_378 x_58728) u_6 u_6 (cons_290 (pair_113 u_6 u_6) x_58695)))))
(assert (forall ((x_58730 list_290) (u_6 Int) (x_58695 list_292))
	(=> (and (diseqInt u_6 u_6) (path_0 x_58730 u_6 u_6 x_58695)) (path_0 (cons_288 true_378 x_58730) u_6 u_6 (cons_290 (pair_113 u_6 u_6) x_58695)))))
(assert (forall ((x_58732 list_290) (u_6 Int) (v_6 Int) (x_58695 list_292))
	(=> (and (diseqInt u_6 v_6) (diseqInt v_6 u_6) (path_0 x_58732 v_6 u_6 x_58695)) (path_0 (cons_288 true_378 x_58732) v_6 u_6 (cons_290 (pair_113 u_6 v_6) x_58695)))))
(assert (forall ((x_58734 list_290) (u_6 Int) (x_58695 list_292))
	(=> (and (diseqInt u_6 u_6) (path_0 x_58734 u_6 u_6 x_58695)) (path_0 (cons_288 true_378 x_58734) u_6 u_6 (cons_290 (pair_113 u_6 u_6) x_58695)))))
(assert (forall ((x_58736 list_290) (u_6 Int) (v_6 Int) (x_58695 list_292))
	(=> (and (diseqInt u_6 v_6) (diseqInt u_6 v_6) (path_0 x_58736 v_6 v_6 x_58695)) (path_0 (cons_288 false_378 x_58736) v_6 v_6 (cons_290 (pair_113 u_6 v_6) x_58695)))))
(assert (forall ((x_58738 list_290) (u_6 Int) (x_58695 list_292) (y_2529 Int))
	(=> (and (diseqInt u_6 y_2529) (diseqInt u_6 y_2529) (path_0 x_58738 u_6 y_2529 x_58695)) (path_0 (cons_288 false_378 x_58738) u_6 y_2529 (cons_290 (pair_113 u_6 u_6) x_58695)))))
(assert (forall ((x_58740 list_290) (u_6 Int) (v_6 Int) (x_58695 list_292) (y_2529 Int))
	(=> (and (diseqInt u_6 v_6) (diseqInt v_6 y_2529) (diseqInt u_6 y_2529) (path_0 x_58740 v_6 y_2529 x_58695)) (path_0 (cons_288 false_378 x_58740) v_6 y_2529 (cons_290 (pair_113 u_6 v_6) x_58695)))))
(assert (forall ((x_58742 list_290) (u_6 Int) (x_58695 list_292))
	(=> (and (diseqInt u_6 u_6) (path_0 x_58742 u_6 u_6 x_58695)) (path_0 (cons_288 true_378 x_58742) u_6 u_6 (cons_290 (pair_113 u_6 u_6) x_58695)))))
(assert (forall ((x_58744 list_290) (u_6 Int) (x_58695 list_292) (x_58693 Int))
	(=> (and (diseqInt u_6 x_58693) (diseqInt u_6 x_58693) (path_0 x_58744 x_58693 u_6 x_58695)) (path_0 (cons_288 false_378 x_58744) x_58693 u_6 (cons_290 (pair_113 u_6 u_6) x_58695)))))
(assert (forall ((x_58746 list_290) (u_6 Int) (v_6 Int) (x_58695 list_292))
	(=> (and (diseqInt v_6 u_6) (diseqInt v_6 u_6) (path_0 x_58746 u_6 u_6 x_58695)) (path_0 (cons_288 false_378 x_58746) u_6 u_6 (cons_290 (pair_113 u_6 v_6) x_58695)))))
(assert (forall ((x_58748 list_290) (u_6 Int) (v_6 Int) (x_58695 list_292) (x_58693 Int))
	(=> (and (diseqInt u_6 x_58693) (diseqInt v_6 u_6) (diseqInt v_6 x_58693) (path_0 x_58748 x_58693 u_6 x_58695)) (path_0 (cons_288 false_378 x_58748) x_58693 u_6 (cons_290 (pair_113 u_6 v_6) x_58695)))))
(assert (forall ((x_58750 list_290) (u_6 Int) (v_6 Int) (x_58695 list_292))
	(=> (and (diseqInt u_6 v_6) (diseqInt v_6 u_6) (path_0 x_58750 u_6 v_6 x_58695)) (path_0 (cons_288 true_378 x_58750) u_6 v_6 (cons_290 (pair_113 u_6 v_6) x_58695)))))
(assert (forall ((x_58752 list_290) (u_6 Int) (v_6 Int) (x_58695 list_292) (x_58693 Int))
	(=> (and (diseqInt u_6 x_58693) (diseqInt u_6 v_6) (diseqInt v_6 x_58693) (path_0 x_58752 x_58693 v_6 x_58695)) (path_0 (cons_288 false_378 x_58752) x_58693 v_6 (cons_290 (pair_113 u_6 v_6) x_58695)))))
(assert (forall ((x_58754 list_290) (u_6 Int) (v_6 Int) (x_58695 list_292) (y_2529 Int))
	(=> (and (diseqInt v_6 y_2529) (diseqInt u_6 y_2529) (diseqInt v_6 u_6) (path_0 x_58754 u_6 y_2529 x_58695)) (path_0 (cons_288 false_378 x_58754) u_6 y_2529 (cons_290 (pair_113 u_6 v_6) x_58695)))))
(assert (forall ((x_58756 list_290) (u_6 Int) (v_6 Int) (x_58695 list_292) (x_58693 Int) (y_2529 Int))
	(=> (and (diseqInt u_6 x_58693) (diseqInt v_6 y_2529) (diseqInt u_6 y_2529) (diseqInt v_6 x_58693) (path_0 x_58756 x_58693 y_2529 x_58695)) (path_0 (cons_288 false_378 x_58756) x_58693 y_2529 (cons_290 (pair_113 u_6 v_6) x_58695)))))
(assert (forall ((x_58693 Int) (y_2529 Int))
	(path_0 nil_321 x_58693 y_2529 nil_323)))
(declare-fun or_388 (Bool_378 list_290) Bool)
(assert (forall ((x_58758 Bool_378) (x_58759 Bool_378) (y_2530 Bool_378) (xs_744 list_290))
	(=> (and (or_388 x_58759 xs_744) (or_389 x_58758 y_2530 x_58759)) (or_388 x_58758 (cons_288 y_2530 xs_744)))))
(assert (or_388 false_378 nil_321))
(declare-fun path_1 (Bool_378 list_291 list_292) Bool)
(assert (forall ((x_58761 Bool_378) (x_58762 list_290) (x_58763 Bool_378) (x_58764 Bool_378) (y_2532 Int) (xs_745 list_291) (z_2273 Int) (y_2531 list_292))
	(=> (and (path_0 x_58762 z_2273 y_2532 y_2531) (or_388 x_58763 x_58762) (path_1 x_58764 (cons_289 y_2532 xs_745) y_2531) (and_379 x_58761 x_58763 x_58764)) (path_1 x_58761 (cons_289 z_2273 (cons_289 y_2532 xs_745)) y_2531))))
(assert (forall ((z_2273 Int) (y_2531 list_292))
	(path_1 true_378 (cons_289 z_2273 nil_322) y_2531)))
(assert (forall ((y_2531 list_292))
	(path_1 true_378 nil_322 y_2531)))
(declare-fun maximummaximum_1 (Int Int list_292) Bool)
(assert (forall ((x_58767 Int) (y_2535 Int) (y_2534 Int) (yzs_1 list_292) (x_58699 Int))
	(=> (and (le_378 y_2534 y_2535) (le_378 x_58699 y_2535) (maximummaximum_1 x_58767 y_2535 yzs_1)) (maximummaximum_1 x_58767 x_58699 (cons_290 (pair_113 y_2534 y_2535) yzs_1)))))
(assert (forall ((x_58769 Int) (y_2535 Int) (y_2534 Int) (yzs_1 list_292) (x_58699 Int))
	(=> (and (le_378 y_2534 y_2535) (gt_381 x_58699 y_2535) (maximummaximum_1 x_58769 x_58699 yzs_1)) (maximummaximum_1 x_58769 x_58699 (cons_290 (pair_113 y_2534 y_2535) yzs_1)))))
(assert (forall ((x_58771 Int) (y_2534 Int) (z_2275 Int) (yzs_1 list_292) (x_58699 Int))
	(=> (and (gt_381 y_2534 z_2275) (le_378 x_58699 y_2534) (maximummaximum_1 x_58771 y_2534 yzs_1)) (maximummaximum_1 x_58771 x_58699 (cons_290 (pair_113 y_2534 z_2275) yzs_1)))))
(assert (forall ((x_58773 Int) (y_2534 Int) (z_2275 Int) (yzs_1 list_292) (x_58699 Int))
	(=> (and (gt_381 y_2534 z_2275) (gt_381 x_58699 y_2534) (maximummaximum_1 x_58773 x_58699 yzs_1)) (maximummaximum_1 x_58773 x_58699 (cons_290 (pair_113 y_2534 z_2275) yzs_1)))))
(assert (forall ((x_58699 Int))
	(maximummaximum_1 x_58699 x_58699 nil_323)))
(declare-fun length_59 (Int list_291) Bool)
(assert (forall ((x_58776 Int) (x_58777 Int) (y_2536 Int) (l_48 list_291))
	(=> (and (length_59 x_58777 l_48) (add_404 x_58776 (S_528 Z_2280) x_58777)) (length_59 x_58776 (cons_289 y_2536 l_48)))))
(assert (length_59 Z_2280 nil_322))
(declare-fun last_10 (Int Int list_291) Bool)
(assert (forall ((x_58779 Int) (z_2276 Int) (ys_213 list_291) (x_58701 Int))
	(=> (last_10 x_58779 z_2276 ys_213) (last_10 x_58779 x_58701 (cons_289 z_2276 ys_213)))))
(assert (forall ((x_58701 Int))
	(last_10 x_58701 x_58701 nil_322)))
(declare-fun elem_25 (Bool_378 Int list_291) Bool)
(assert (forall ((xs_746 list_291) (x_58702 Int))
	(elem_25 true_378 x_58702 (cons_289 x_58702 xs_746))))
(assert (forall ((x_58783 Bool_378) (z_2277 Int) (xs_746 list_291) (x_58702 Int))
	(=> (and (diseqInt z_2277 x_58702) (elem_25 x_58783 x_58702 xs_746)) (elem_25 x_58783 x_58702 (cons_289 z_2277 xs_746)))))
(assert (forall ((x_58702 Int))
	(elem_25 false_378 x_58702 nil_322)))
(declare-fun unique_0 (Bool_378 list_291) Bool)
(assert (forall ((y_2539 Int) (xs_747 list_291))
	(=> (elem_25 true_378 y_2539 xs_747) (unique_0 false_378 (cons_289 y_2539 xs_747)))))
(assert (forall ((x_58789 Bool_378) (y_2539 Int) (xs_747 list_291))
	(=> (and (unique_0 x_58789 xs_747) (elem_25 false_378 y_2539 xs_747)) (unique_0 x_58789 (cons_289 y_2539 xs_747)))))
(assert (unique_0 true_378 nil_322))
(declare-fun tour_0 (Bool_378 list_291 list_292) Bool)
(assert (forall ((x_58795 Bool_378) (x_58796 Bool_378) (x_58797 Bool_378) (x_58793 Int) (x_58794 Int) (u_7 Int) (v_7 Int) (vs_3 list_292) (x_58705 Int) (x_58706 list_291))
	(=> (and (le_378 u_7 v_7) (path_1 x_58796 (cons_289 x_58705 x_58706) (cons_290 (pair_113 u_7 v_7) vs_3)) (unique_0 x_58797 x_58706) (length_59 x_58793 (cons_289 x_58705 x_58706)) (maximummaximum_1 x_58794 v_7 vs_3) (last_10 x_58705 x_58705 x_58706) (and_379 x_58795 x_58796 x_58797) (add_404 x_58793 (S_528 (S_528 Z_2280)) x_58794)) (tour_0 x_58795 (cons_289 x_58705 x_58706) (cons_290 (pair_113 u_7 v_7) vs_3)))))
(assert (forall ((x_58799 Int) (x_58800 Int) (x_58798 Int) (u_7 Int) (v_7 Int) (vs_3 list_292) (x_58705 Int) (x_58706 list_291))
	(=> (and (diseqInt x_58705 x_58798) (le_378 u_7 v_7) (length_59 x_58799 (cons_289 x_58705 x_58706)) (maximummaximum_1 x_58800 v_7 vs_3) (last_10 x_58798 x_58705 x_58706) (add_404 x_58799 (S_528 (S_528 Z_2280)) x_58800)) (tour_0 false_378 (cons_289 x_58705 x_58706) (cons_290 (pair_113 u_7 v_7) vs_3)))))
(assert (forall ((x_58868 Int) (x_58803 Int) (x_58804 Int) (u_7 Int) (v_7 Int) (vs_3 list_292) (x_58705 Int) (x_58706 list_291))
	(=> (and (diseqInt x_58803 x_58868) (le_378 u_7 v_7) (length_59 x_58803 (cons_289 x_58705 x_58706)) (maximummaximum_1 x_58804 v_7 vs_3) (last_10 x_58705 x_58705 x_58706) (add_404 x_58868 (S_528 (S_528 Z_2280)) x_58804)) (tour_0 false_378 (cons_289 x_58705 x_58706) (cons_290 (pair_113 u_7 v_7) vs_3)))))
(assert (forall ((x_58869 Int) (x_58807 Int) (x_58808 Int) (x_58806 Int) (u_7 Int) (v_7 Int) (vs_3 list_292) (x_58705 Int) (x_58706 list_291))
	(=> (and (diseqInt x_58705 x_58806) (diseqInt x_58807 x_58869) (le_378 u_7 v_7) (length_59 x_58807 (cons_289 x_58705 x_58706)) (maximummaximum_1 x_58808 v_7 vs_3) (last_10 x_58806 x_58705 x_58706) (add_404 x_58869 (S_528 (S_528 Z_2280)) x_58808)) (tour_0 false_378 (cons_289 x_58705 x_58706) (cons_290 (pair_113 u_7 v_7) vs_3)))))
(assert (forall ((x_58813 Bool_378) (x_58814 Bool_378) (x_58815 Bool_378) (x_58811 Int) (x_58812 Int) (u_7 Int) (v_7 Int) (vs_3 list_292) (x_58705 Int) (x_58706 list_291))
	(=> (and (gt_381 u_7 v_7) (path_1 x_58814 (cons_289 x_58705 x_58706) (cons_290 (pair_113 u_7 v_7) vs_3)) (unique_0 x_58815 x_58706) (length_59 x_58811 (cons_289 x_58705 x_58706)) (maximummaximum_1 x_58812 u_7 vs_3) (last_10 x_58705 x_58705 x_58706) (and_379 x_58813 x_58814 x_58815) (add_404 x_58811 (S_528 (S_528 Z_2280)) x_58812)) (tour_0 x_58813 (cons_289 x_58705 x_58706) (cons_290 (pair_113 u_7 v_7) vs_3)))))
(assert (forall ((x_58817 Int) (x_58818 Int) (x_58816 Int) (u_7 Int) (v_7 Int) (vs_3 list_292) (x_58705 Int) (x_58706 list_291))
	(=> (and (diseqInt x_58705 x_58816) (gt_381 u_7 v_7) (length_59 x_58817 (cons_289 x_58705 x_58706)) (maximummaximum_1 x_58818 u_7 vs_3) (last_10 x_58816 x_58705 x_58706) (add_404 x_58817 (S_528 (S_528 Z_2280)) x_58818)) (tour_0 false_378 (cons_289 x_58705 x_58706) (cons_290 (pair_113 u_7 v_7) vs_3)))))
(assert (forall ((x_58872 Int) (x_58821 Int) (x_58822 Int) (u_7 Int) (v_7 Int) (vs_3 list_292) (x_58705 Int) (x_58706 list_291))
	(=> (and (diseqInt x_58821 x_58872) (gt_381 u_7 v_7) (length_59 x_58821 (cons_289 x_58705 x_58706)) (maximummaximum_1 x_58822 u_7 vs_3) (last_10 x_58705 x_58705 x_58706) (add_404 x_58872 (S_528 (S_528 Z_2280)) x_58822)) (tour_0 false_378 (cons_289 x_58705 x_58706) (cons_290 (pair_113 u_7 v_7) vs_3)))))
(assert (forall ((x_58873 Int) (x_58825 Int) (x_58826 Int) (x_58824 Int) (u_7 Int) (v_7 Int) (vs_3 list_292) (x_58705 Int) (x_58706 list_291))
	(=> (and (diseqInt x_58705 x_58824) (diseqInt x_58825 x_58873) (gt_381 u_7 v_7) (length_59 x_58825 (cons_289 x_58705 x_58706)) (maximummaximum_1 x_58826 u_7 vs_3) (last_10 x_58824 x_58705 x_58706) (add_404 x_58873 (S_528 (S_528 Z_2280)) x_58826)) (tour_0 false_378 (cons_289 x_58705 x_58706) (cons_290 (pair_113 u_7 v_7) vs_3)))))
(assert (forall ((x_58705 Int) (x_58706 list_291))
	(tour_0 false_378 (cons_289 x_58705 x_58706) nil_323)))
(assert (forall ((z_2278 pair_112) (x_58708 list_292))
	(tour_0 false_378 nil_322 (cons_290 z_2278 x_58708))))
(assert (tour_0 true_378 nil_322 nil_323))
(declare-fun x_58709 (list_292 list_292 list_292) Bool)
(assert (forall ((x_58832 list_292) (z_2279 pair_112) (xs_748 list_292) (y_2541 list_292))
	(=> (x_58709 x_58832 xs_748 y_2541) (x_58709 (cons_290 z_2279 x_58832) (cons_290 z_2279 xs_748) y_2541))))
(assert (forall ((x_58833 list_292))
	(x_58709 x_58833 nil_323 x_58833)))
(declare-fun concat_3 (list_292 list_293) Bool)
(assert (forall ((x_58834 list_292) (x_58835 list_292) (y_2542 list_292) (xs_749 list_293))
	(=> (and (concat_3 x_58835 xs_749) (x_58709 x_58834 y_2542 x_58835)) (concat_3 x_58834 (cons_291 y_2542 xs_749)))))
(assert (concat_3 nil_323 nil_324))
(declare-fun petersen_7 (list_292 Int) Bool)
(assert (petersen_7 nil_323 Z_2280))
(assert (forall ((x_58875 Int) (x_58874 Int) (x_58839 list_292) (x_58840 list_291) (x_58841 list_292) (x_58842 list_293) (x_58843 list_292) (x_58844 list_291) (x_58845 list_292) (x_58712 Int))
	(=> (and (diseqInt x_58712 Z_2280) (primEnumFromTo_2 x_58840 Z_2280 x_58874) (petersen_5 x_58841 x_58840) (petersen_6 x_58842 x_58712 (cons_290 (pair_113 x_58875 Z_2280) x_58841)) (concat_3 x_58843 x_58842) (primEnumFromTo_2 x_58844 Z_2280 x_58712) (petersen_4 x_58845 x_58712 x_58844) (x_58709 x_58839 x_58843 x_58845) (minus_399 x_58875 x_58712 (S_528 Z_2280)) (minus_399 x_58874 x_58712 (S_528 Z_2280))) (petersen_7 x_58839 x_58712))))
(assert (forall ((x_58877 Int) (x_58876 Int) (x_58847 list_291) (x_58848 list_292) (x_58849 list_293) (x_58850 list_292) (x_58851 list_291) (x_58852 list_292) (x_58853 list_292) (p_422 list_291))
	(=> (and true (primEnumFromTo_2 x_58847 Z_2280 x_58876) (petersen_5 x_58848 x_58847) (petersen_6 x_58849 (S_528 (S_528 (S_528 (S_528 (S_528 Z_2280))))) (cons_290 (pair_113 x_58877 Z_2280) x_58848)) (concat_3 x_58850 x_58849) (primEnumFromTo_2 x_58851 Z_2280 (S_528 (S_528 (S_528 (S_528 (S_528 Z_2280)))))) (petersen_4 x_58852 (S_528 (S_528 (S_528 (S_528 (S_528 Z_2280))))) x_58851) (x_58709 x_58853 x_58850 x_58852) (tour_0 true_378 p_422 x_58853) (minus_399 x_58877 (S_528 (S_528 (S_528 (S_528 (S_528 Z_2280))))) (S_528 Z_2280)) (minus_399 x_58876 (S_528 (S_528 (S_528 (S_528 (S_528 Z_2280))))) (S_528 Z_2280))) false)))
(check-sat)
